MINIMIZE 
OBJ: 
1.000 X_01_02_01_02+ 1.000 X_01_02_01_03+ 1.000 X_01_02_02_01+ 1.000 X_01_02_02_03+ 1.000 X_01_02_03_01+ 1.000 X_01_02_03_02+ 1.000 X_01_02_03_04+ 
1.000 X_01_02_04_03+ 1.000 X_01_02_04_05+ 1.000 X_01_02_05_04+ 1.000 X_01_03_01_02+ 1.000 X_01_03_01_03+ 1.000 X_01_03_02_01+ 1.000 X_01_03_02_03+ 
1.000 X_01_03_03_01+ 1.000 X_01_03_03_02+ 1.000 X_01_03_03_04+ 1.000 X_01_03_04_03+ 1.000 X_01_03_04_05+ 1.000 X_01_03_05_04+ 1.000 X_01_04_01_02+ 
1.000 X_01_04_01_03+ 1.000 X_01_04_02_01+ 1.000 X_01_04_02_03+ 1.000 X_01_04_03_01+ 1.000 X_01_04_03_02+ 1.000 X_01_04_03_04+ 1.000 X_01_04_04_03+ 
1.000 X_01_04_04_05+ 1.000 X_01_04_05_04+ 1.000 X_01_05_01_02+ 1.000 X_01_05_01_03+ 1.000 X_01_05_02_01+ 1.000 X_01_05_02_03+ 1.000 X_01_05_03_01+ 
1.000 X_01_05_03_02+ 1.000 X_01_05_03_04+ 1.000 X_01_05_04_03+ 1.000 X_01_05_04_05+ 1.000 X_01_05_05_04+ 1.000 X_02_01_01_02+ 1.000 X_02_01_01_03+ 
1.000 X_02_01_02_01+ 1.000 X_02_01_02_03+ 1.000 X_02_01_03_01+ 1.000 X_02_01_03_02+ 1.000 X_02_01_03_04+ 1.000 X_02_01_04_03+ 1.000 X_02_01_04_05+ 
1.000 X_02_01_05_04+ 1.000 X_02_03_01_02+ 1.000 X_02_03_01_03+ 1.000 X_02_03_02_01+ 1.000 X_02_03_02_03+ 1.000 X_02_03_03_01+ 1.000 X_02_03_03_02+ 
1.000 X_02_03_03_04+ 1.000 X_02_03_04_03+ 1.000 X_02_03_04_05+ 1.000 X_02_03_05_04+ 1.000 X_02_04_01_02+ 1.000 X_02_04_01_03+ 1.000 X_02_04_02_01+ 
1.000 X_02_04_02_03+ 1.000 X_02_04_03_01+ 1.000 X_02_04_03_02+ 1.000 X_02_04_03_04+ 1.000 X_02_04_04_03+ 1.000 X_02_04_04_05+ 1.000 X_02_04_05_04+ 
1.000 X_02_05_01_02+ 1.000 X_02_05_01_03+ 1.000 X_02_05_02_01+ 1.000 X_02_05_02_03+ 1.000 X_02_05_03_01+ 1.000 X_02_05_03_02+ 1.000 X_02_05_03_04+ 
1.000 X_02_05_04_03+ 1.000 X_02_05_04_05+ 1.000 X_02_05_05_04+ 1.000 X_03_01_01_02+ 1.000 X_03_01_01_03+ 1.000 X_03_01_02_01+ 1.000 X_03_01_02_03+ 
1.000 X_03_01_03_01+ 1.000 X_03_01_03_02+ 1.000 X_03_01_03_04+ 1.000 X_03_01_04_03+ 1.000 X_03_01_04_05+ 1.000 X_03_01_05_04+ 1.000 X_03_02_01_02+ 
1.000 X_03_02_01_03+ 1.000 X_03_02_02_01+ 1.000 X_03_02_02_03+ 1.000 X_03_02_03_01+ 1.000 X_03_02_03_02+ 1.000 X_03_02_03_04+ 1.000 X_03_02_04_03+ 
1.000 X_03_02_04_05+ 1.000 X_03_02_05_04+ 1.000 X_03_04_01_02+ 1.000 X_03_04_01_03+ 1.000 X_03_04_02_01+ 1.000 X_03_04_02_03+ 1.000 X_03_04_03_01+ 
1.000 X_03_04_03_02+ 1.000 X_03_04_03_04+ 1.000 X_03_04_04_03+ 1.000 X_03_04_04_05+ 1.000 X_03_04_05_04+ 1.000 X_03_05_01_02+ 1.000 X_03_05_01_03+ 
1.000 X_03_05_02_01+ 1.000 X_03_05_02_03+ 1.000 X_03_05_03_01+ 1.000 X_03_05_03_02+ 1.000 X_03_05_03_04+ 1.000 X_03_05_04_03+ 1.000 X_03_05_04_05+ 
1.000 X_03_05_05_04+ 1.000 X_04_01_01_02+ 1.000 X_04_01_01_03+ 1.000 X_04_01_02_01+ 1.000 X_04_01_02_03+ 1.000 X_04_01_03_01+ 1.000 X_04_01_03_02+ 
1.000 X_04_01_03_04+ 1.000 X_04_01_04_03+ 1.000 X_04_01_04_05+ 1.000 X_04_01_05_04+ 1.000 X_04_02_01_02+ 1.000 X_04_02_01_03+ 1.000 X_04_02_02_01+ 
1.000 X_04_02_02_03+ 1.000 X_04_02_03_01+ 1.000 X_04_02_03_02+ 1.000 X_04_02_03_04+ 1.000 X_04_02_04_03+ 1.000 X_04_02_04_05+ 1.000 X_04_02_05_04+ 
1.000 X_04_03_01_02+ 1.000 X_04_03_01_03+ 1.000 X_04_03_02_01+ 1.000 X_04_03_02_03+ 1.000 X_04_03_03_01+ 1.000 X_04_03_03_02+ 1.000 X_04_03_03_04+ 
1.000 X_04_03_04_03+ 1.000 X_04_03_04_05+ 1.000 X_04_03_05_04+ 1.000 X_04_05_01_02+ 1.000 X_04_05_01_03+ 1.000 X_04_05_02_01+ 1.000 X_04_05_02_03+ 
1.000 X_04_05_03_01+ 1.000 X_04_05_03_02+ 1.000 X_04_05_03_04+ 1.000 X_04_05_04_03+ 1.000 X_04_05_04_05+ 1.000 X_04_05_05_04+ 1.000 X_05_01_01_02+ 
1.000 X_05_01_01_03+ 1.000 X_05_01_02_01+ 1.000 X_05_01_02_03+ 1.000 X_05_01_03_01+ 1.000 X_05_01_03_02+ 1.000 X_05_01_03_04+ 1.000 X_05_01_04_03+ 
1.000 X_05_01_04_05+ 1.000 X_05_01_05_04+ 1.000 X_05_02_01_02+ 1.000 X_05_02_01_03+ 1.000 X_05_02_02_01+ 1.000 X_05_02_02_03+ 1.000 X_05_02_03_01+ 
1.000 X_05_02_03_02+ 1.000 X_05_02_03_04+ 1.000 X_05_02_04_03+ 1.000 X_05_02_04_05+ 1.000 X_05_02_05_04+ 1.000 X_05_03_01_02+ 1.000 X_05_03_01_03+ 
1.000 X_05_03_02_01+ 1.000 X_05_03_02_03+ 1.000 X_05_03_03_01+ 1.000 X_05_03_03_02+ 1.000 X_05_03_03_04+ 1.000 X_05_03_04_03+ 1.000 X_05_03_04_05+ 
1.000 X_05_03_05_04+ 1.000 X_05_04_01_02+ 1.000 X_05_04_01_03+ 1.000 X_05_04_02_01+ 1.000 X_05_04_02_03+ 1.000 X_05_04_03_01+ 1.000 X_05_04_03_02+ 
1.000 X_05_04_03_04+ 1.000 X_05_04_04_03+ 1.000 X_05_04_04_05+ 1.000 X_05_04_05_04 

SUBJECT TO 
C0102_01: + X_01_02_01_02 - X_01_02_02_01 + X_01_02_01_03 - X_01_02_03_01  = 1 
C0102_02: + X_01_02_02_01 - X_01_02_01_02 + X_01_02_02_03 - X_01_02_03_02  = -1 
C0102_03: + X_01_02_03_01 - X_01_02_01_03 + X_01_02_03_02 - X_01_02_02_03 + X_01_02_03_04 - X_01_02_04_03  = 0 
C0102_04: + X_01_02_04_03 - X_01_02_03_04 + X_01_02_04_05 - X_01_02_05_04  = 0 
C0102_05: + X_01_02_05_04 - X_01_02_04_05  = 0 
C0103_01: + X_01_03_01_02 - X_01_03_02_01 + X_01_03_01_03 - X_01_03_03_01  = 1 
C0103_02: + X_01_03_02_01 - X_01_03_01_02 + X_01_03_02_03 - X_01_03_03_02  = 0 
C0103_03: + X_01_03_03_01 - X_01_03_01_03 + X_01_03_03_02 - X_01_03_02_03 + X_01_03_03_04 - X_01_03_04_03  = -1 
C0103_04: + X_01_03_04_03 - X_01_03_03_04 + X_01_03_04_05 - X_01_03_05_04  = 0 
C0103_05: + X_01_03_05_04 - X_01_03_04_05  = 0 
C0104_01: + X_01_04_01_02 - X_01_04_02_01 + X_01_04_01_03 - X_01_04_03_01  = 1 
C0104_02: + X_01_04_02_01 - X_01_04_01_02 + X_01_04_02_03 - X_01_04_03_02  = 0 
C0104_03: + X_01_04_03_01 - X_01_04_01_03 + X_01_04_03_02 - X_01_04_02_03 + X_01_04_03_04 - X_01_04_04_03  = 0 
C0104_04: + X_01_04_04_03 - X_01_04_03_04 + X_01_04_04_05 - X_01_04_05_04  = -1 
C0104_05: + X_01_04_05_04 - X_01_04_04_05  = 0 
C0105_01: + X_01_05_01_02 - X_01_05_02_01 + X_01_05_01_03 - X_01_05_03_01  = 1 
C0105_02: + X_01_05_02_01 - X_01_05_01_02 + X_01_05_02_03 - X_01_05_03_02  = 0 
C0105_03: + X_01_05_03_01 - X_01_05_01_03 + X_01_05_03_02 - X_01_05_02_03 + X_01_05_03_04 - X_01_05_04_03  = 0 
C0105_04: + X_01_05_04_03 - X_01_05_03_04 + X_01_05_04_05 - X_01_05_05_04  = 0 
C0105_05: + X_01_05_05_04 - X_01_05_04_05  = -1 
C0201_01: + X_02_01_01_02 - X_02_01_02_01 + X_02_01_01_03 - X_02_01_03_01  = -1 
C0201_02: + X_02_01_02_01 - X_02_01_01_02 + X_02_01_02_03 - X_02_01_03_02  = 1 
C0201_03: + X_02_01_03_01 - X_02_01_01_03 + X_02_01_03_02 - X_02_01_02_03 + X_02_01_03_04 - X_02_01_04_03  = 0 
C0201_04: + X_02_01_04_03 - X_02_01_03_04 + X_02_01_04_05 - X_02_01_05_04  = 0 
C0201_05: + X_02_01_05_04 - X_02_01_04_05  = 0 
C0203_01: + X_02_03_01_02 - X_02_03_02_01 + X_02_03_01_03 - X_02_03_03_01  = 0 
C0203_02: + X_02_03_02_01 - X_02_03_01_02 + X_02_03_02_03 - X_02_03_03_02  = 1 
C0203_03: + X_02_03_03_01 - X_02_03_01_03 + X_02_03_03_02 - X_02_03_02_03 + X_02_03_03_04 - X_02_03_04_03  = -1 
C0203_04: + X_02_03_04_03 - X_02_03_03_04 + X_02_03_04_05 - X_02_03_05_04  = 0 
C0203_05: + X_02_03_05_04 - X_02_03_04_05  = 0 
C0204_01: + X_02_04_01_02 - X_02_04_02_01 + X_02_04_01_03 - X_02_04_03_01  = 0 
C0204_02: + X_02_04_02_01 - X_02_04_01_02 + X_02_04_02_03 - X_02_04_03_02  = 1 
C0204_03: + X_02_04_03_01 - X_02_04_01_03 + X_02_04_03_02 - X_02_04_02_03 + X_02_04_03_04 - X_02_04_04_03  = 0 
C0204_04: + X_02_04_04_03 - X_02_04_03_04 + X_02_04_04_05 - X_02_04_05_04  = -1 
C0204_05: + X_02_04_05_04 - X_02_04_04_05  = 0 
C0205_01: + X_02_05_01_02 - X_02_05_02_01 + X_02_05_01_03 - X_02_05_03_01  = 0 
C0205_02: + X_02_05_02_01 - X_02_05_01_02 + X_02_05_02_03 - X_02_05_03_02  = 1 
C0205_03: + X_02_05_03_01 - X_02_05_01_03 + X_02_05_03_02 - X_02_05_02_03 + X_02_05_03_04 - X_02_05_04_03  = 0 
C0205_04: + X_02_05_04_03 - X_02_05_03_04 + X_02_05_04_05 - X_02_05_05_04  = 0 
C0205_05: + X_02_05_05_04 - X_02_05_04_05  = -1 
C0301_01: + X_03_01_01_02 - X_03_01_02_01 + X_03_01_01_03 - X_03_01_03_01  = -1 
C0301_02: + X_03_01_02_01 - X_03_01_01_02 + X_03_01_02_03 - X_03_01_03_02  = 0 
C0301_03: + X_03_01_03_01 - X_03_01_01_03 + X_03_01_03_02 - X_03_01_02_03 + X_03_01_03_04 - X_03_01_04_03  = 1 
C0301_04: + X_03_01_04_03 - X_03_01_03_04 + X_03_01_04_05 - X_03_01_05_04  = 0 
C0301_05: + X_03_01_05_04 - X_03_01_04_05  = 0 
C0302_01: + X_03_02_01_02 - X_03_02_02_01 + X_03_02_01_03 - X_03_02_03_01  = 0 
C0302_02: + X_03_02_02_01 - X_03_02_01_02 + X_03_02_02_03 - X_03_02_03_02  = -1 
C0302_03: + X_03_02_03_01 - X_03_02_01_03 + X_03_02_03_02 - X_03_02_02_03 + X_03_02_03_04 - X_03_02_04_03  = 1 
C0302_04: + X_03_02_04_03 - X_03_02_03_04 + X_03_02_04_05 - X_03_02_05_04  = 0 
C0302_05: + X_03_02_05_04 - X_03_02_04_05  = 0 
C0304_01: + X_03_04_01_02 - X_03_04_02_01 + X_03_04_01_03 - X_03_04_03_01  = 0 
C0304_02: + X_03_04_02_01 - X_03_04_01_02 + X_03_04_02_03 - X_03_04_03_02  = 0 
C0304_03: + X_03_04_03_01 - X_03_04_01_03 + X_03_04_03_02 - X_03_04_02_03 + X_03_04_03_04 - X_03_04_04_03  = 1 
C0304_04: + X_03_04_04_03 - X_03_04_03_04 + X_03_04_04_05 - X_03_04_05_04  = -1 
C0304_05: + X_03_04_05_04 - X_03_04_04_05  = 0 
C0305_01: + X_03_05_01_02 - X_03_05_02_01 + X_03_05_01_03 - X_03_05_03_01  = 0 
C0305_02: + X_03_05_02_01 - X_03_05_01_02 + X_03_05_02_03 - X_03_05_03_02  = 0 
C0305_03: + X_03_05_03_01 - X_03_05_01_03 + X_03_05_03_02 - X_03_05_02_03 + X_03_05_03_04 - X_03_05_04_03  = 1 
C0305_04: + X_03_05_04_03 - X_03_05_03_04 + X_03_05_04_05 - X_03_05_05_04  = 0 
C0305_05: + X_03_05_05_04 - X_03_05_04_05  = -1 
C0401_01: + X_04_01_01_02 - X_04_01_02_01 + X_04_01_01_03 - X_04_01_03_01  = -1 
C0401_02: + X_04_01_02_01 - X_04_01_01_02 + X_04_01_02_03 - X_04_01_03_02  = 0 
C0401_03: + X_04_01_03_01 - X_04_01_01_03 + X_04_01_03_02 - X_04_01_02_03 + X_04_01_03_04 - X_04_01_04_03  = 0 
C0401_04: + X_04_01_04_03 - X_04_01_03_04 + X_04_01_04_05 - X_04_01_05_04  = 1 
C0401_05: + X_04_01_05_04 - X_04_01_04_05  = 0 
C0402_01: + X_04_02_01_02 - X_04_02_02_01 + X_04_02_01_03 - X_04_02_03_01  = 0 
C0402_02: + X_04_02_02_01 - X_04_02_01_02 + X_04_02_02_03 - X_04_02_03_02  = -1 
C0402_03: + X_04_02_03_01 - X_04_02_01_03 + X_04_02_03_02 - X_04_02_02_03 + X_04_02_03_04 - X_04_02_04_03  = 0 
C0402_04: + X_04_02_04_03 - X_04_02_03_04 + X_04_02_04_05 - X_04_02_05_04  = 1 
C0402_05: + X_04_02_05_04 - X_04_02_04_05  = 0 
C0403_01: + X_04_03_01_02 - X_04_03_02_01 + X_04_03_01_03 - X_04_03_03_01  = 0 
C0403_02: + X_04_03_02_01 - X_04_03_01_02 + X_04_03_02_03 - X_04_03_03_02  = 0 
C0403_03: + X_04_03_03_01 - X_04_03_01_03 + X_04_03_03_02 - X_04_03_02_03 + X_04_03_03_04 - X_04_03_04_03  = -1 
C0403_04: + X_04_03_04_03 - X_04_03_03_04 + X_04_03_04_05 - X_04_03_05_04  = 1 
C0403_05: + X_04_03_05_04 - X_04_03_04_05  = 0 
C0405_01: + X_04_05_01_02 - X_04_05_02_01 + X_04_05_01_03 - X_04_05_03_01  = 0 
C0405_02: + X_04_05_02_01 - X_04_05_01_02 + X_04_05_02_03 - X_04_05_03_02  = 0 
C0405_03: + X_04_05_03_01 - X_04_05_01_03 + X_04_05_03_02 - X_04_05_02_03 + X_04_05_03_04 - X_04_05_04_03  = 0 
C0405_04: + X_04_05_04_03 - X_04_05_03_04 + X_04_05_04_05 - X_04_05_05_04  = 1 
C0405_05: + X_04_05_05_04 - X_04_05_04_05  = -1 
C0501_01: + X_05_01_01_02 - X_05_01_02_01 + X_05_01_01_03 - X_05_01_03_01  = -1 
C0501_02: + X_05_01_02_01 - X_05_01_01_02 + X_05_01_02_03 - X_05_01_03_02  = 0 
C0501_03: + X_05_01_03_01 - X_05_01_01_03 + X_05_01_03_02 - X_05_01_02_03 + X_05_01_03_04 - X_05_01_04_03  = 0 
C0501_04: + X_05_01_04_03 - X_05_01_03_04 + X_05_01_04_05 - X_05_01_05_04  = 0 
C0501_05: + X_05_01_05_04 - X_05_01_04_05  = 1 
C0502_01: + X_05_02_01_02 - X_05_02_02_01 + X_05_02_01_03 - X_05_02_03_01  = 0 
C0502_02: + X_05_02_02_01 - X_05_02_01_02 + X_05_02_02_03 - X_05_02_03_02  = -1 
C0502_03: + X_05_02_03_01 - X_05_02_01_03 + X_05_02_03_02 - X_05_02_02_03 + X_05_02_03_04 - X_05_02_04_03  = 0 
C0502_04: + X_05_02_04_03 - X_05_02_03_04 + X_05_02_04_05 - X_05_02_05_04  = 0 
C0502_05: + X_05_02_05_04 - X_05_02_04_05  = 1 
C0503_01: + X_05_03_01_02 - X_05_03_02_01 + X_05_03_01_03 - X_05_03_03_01  = 0 
C0503_02: + X_05_03_02_01 - X_05_03_01_02 + X_05_03_02_03 - X_05_03_03_02  = 0 
C0503_03: + X_05_03_03_01 - X_05_03_01_03 + X_05_03_03_02 - X_05_03_02_03 + X_05_03_03_04 - X_05_03_04_03  = -1 
C0503_04: + X_05_03_04_03 - X_05_03_03_04 + X_05_03_04_05 - X_05_03_05_04  = 0 
C0503_05: + X_05_03_05_04 - X_05_03_04_05  = 1 
C0504_01: + X_05_04_01_02 - X_05_04_02_01 + X_05_04_01_03 - X_05_04_03_01  = 0 
C0504_02: + X_05_04_02_01 - X_05_04_01_02 + X_05_04_02_03 - X_05_04_03_02  = 0 
C0504_03: + X_05_04_03_01 - X_05_04_01_03 + X_05_04_03_02 - X_05_04_02_03 + X_05_04_03_04 - X_05_04_04_03  = 0 
C0504_04: + X_05_04_04_03 - X_05_04_03_04 + X_05_04_04_05 - X_05_04_05_04  = -1 
C0504_05: + X_05_04_05_04 - X_05_04_04_05  = 1 

C_WCX_01: 
1.000 X_01_02_01_02+ 1.000 X_01_02_01_03+ 1.000 X_01_02_02_01+ 1.000 X_01_02_02_03+ 1.000 X_01_02_03_01+ 1.000 X_01_02_03_02+ 1.000 X_01_02_03_04+ 
1.000 X_01_02_04_03+ 1.000 X_01_02_04_05+ 1.000 X_01_02_05_04+ 1.000 X_01_03_01_02+ 1.000 X_01_03_01_03+ 1.000 X_01_03_02_01+ 1.000 X_01_03_02_03+ 
1.000 X_01_03_03_01+ 1.000 X_01_03_03_02+ 1.000 X_01_03_03_04+ 1.000 X_01_03_04_03+ 1.000 X_01_03_04_05+ 1.000 X_01_03_05_04+ 1.000 X_01_04_01_02+ 
1.000 X_01_04_01_03+ 1.000 X_01_04_02_01+ 1.000 X_01_04_02_03+ 1.000 X_01_04_03_01+ 1.000 X_01_04_03_02+ 1.000 X_01_04_03_04+ 1.000 X_01_04_04_03+ 
1.000 X_01_04_04_05+ 1.000 X_01_04_05_04+ 1.000 X_01_05_01_02+ 1.000 X_01_05_01_03+ 1.000 X_01_05_02_01+ 1.000 X_01_05_02_03+ 1.000 X_01_05_03_01+ 
1.000 X_01_05_03_02+ 1.000 X_01_05_03_04+ 1.000 X_01_05_04_03+ 1.000 X_01_05_04_05+ 1.000 X_01_05_05_04+ 1.000 X_02_01_01_02+ 1.000 X_02_01_01_03+ 
1.000 X_02_01_02_01+ 1.000 X_02_01_02_03+ 1.000 X_02_01_03_01+ 1.000 X_02_01_03_02+ 1.000 X_02_01_03_04+ 1.000 X_02_01_04_03+ 1.000 X_02_01_04_05+ 
1.000 X_02_01_05_04+ 1.000 X_03_01_01_02+ 1.000 X_03_01_01_03+ 1.000 X_03_01_02_01+ 1.000 X_03_01_02_03+ 1.000 X_03_01_03_01+ 1.000 X_03_01_03_02+ 
1.000 X_03_01_03_04+ 1.000 X_03_01_04_03+ 1.000 X_03_01_04_05+ 1.000 X_03_01_05_04+ 1.000 X_04_01_01_02+ 1.000 X_04_01_01_03+ 1.000 X_04_01_02_01+ 
1.000 X_04_01_02_03+ 1.000 X_04_01_03_01+ 1.000 X_04_01_03_02+ 1.000 X_04_01_03_04+ 1.000 X_04_01_04_03+ 1.000 X_04_01_04_05+ 1.000 X_04_01_05_04+ 
1.000 X_05_01_01_02+ 1.000 X_05_01_01_03+ 1.000 X_05_01_02_01+ 1.000 X_05_01_02_03+ 1.000 X_05_01_03_01+ 1.000 X_05_01_03_02+ 1.000 X_05_01_03_04+ 
1.000 X_05_01_04_03+ 1.000 X_05_01_04_05+ 1.000 X_05_01_05_04  - C_WCX_01 = 0 
C_WCX_02: 
1.000 X_02_01_01_02+ 1.000 X_02_01_01_03+ 1.000 X_02_01_02_01+ 1.000 X_02_01_02_03+ 1.000 X_02_01_03_01+ 1.000 X_02_01_03_02+ 1.000 X_02_01_03_04+ 
1.000 X_02_01_04_03+ 1.000 X_02_01_04_05+ 1.000 X_02_01_05_04+ 1.000 X_02_03_01_02+ 1.000 X_02_03_01_03+ 1.000 X_02_03_02_01+ 1.000 X_02_03_02_03+ 
1.000 X_02_03_03_01+ 1.000 X_02_03_03_02+ 1.000 X_02_03_03_04+ 1.000 X_02_03_04_03+ 1.000 X_02_03_04_05+ 1.000 X_02_03_05_04+ 1.000 X_02_04_01_02+ 
1.000 X_02_04_01_03+ 1.000 X_02_04_02_01+ 1.000 X_02_04_02_03+ 1.000 X_02_04_03_01+ 1.000 X_02_04_03_02+ 1.000 X_02_04_03_04+ 1.000 X_02_04_04_03+ 
1.000 X_02_04_04_05+ 1.000 X_02_04_05_04+ 1.000 X_02_05_01_02+ 1.000 X_02_05_01_03+ 1.000 X_02_05_02_01+ 1.000 X_02_05_02_03+ 1.000 X_02_05_03_01+ 
1.000 X_02_05_03_02+ 1.000 X_02_05_03_04+ 1.000 X_02_05_04_03+ 1.000 X_02_05_04_05+ 1.000 X_02_05_05_04+ 1.000 X_01_02_01_02+ 1.000 X_01_02_01_03+ 
1.000 X_01_02_02_01+ 1.000 X_01_02_02_03+ 1.000 X_01_02_03_01+ 1.000 X_01_02_03_02+ 1.000 X_01_02_03_04+ 1.000 X_01_02_04_03+ 1.000 X_01_02_04_05+ 
1.000 X_01_02_05_04+ 1.000 X_03_02_01_02+ 1.000 X_03_02_01_03+ 1.000 X_03_02_02_01+ 1.000 X_03_02_02_03+ 1.000 X_03_02_03_01+ 1.000 X_03_02_03_02+ 
1.000 X_03_02_03_04+ 1.000 X_03_02_04_03+ 1.000 X_03_02_04_05+ 1.000 X_03_02_05_04+ 1.000 X_04_02_01_02+ 1.000 X_04_02_01_03+ 1.000 X_04_02_02_01+ 
1.000 X_04_02_02_03+ 1.000 X_04_02_03_01+ 1.000 X_04_02_03_02+ 1.000 X_04_02_03_04+ 1.000 X_04_02_04_03+ 1.000 X_04_02_04_05+ 1.000 X_04_02_05_04+ 
1.000 X_05_02_01_02+ 1.000 X_05_02_01_03+ 1.000 X_05_02_02_01+ 1.000 X_05_02_02_03+ 1.000 X_05_02_03_01+ 1.000 X_05_02_03_02+ 1.000 X_05_02_03_04+ 
1.000 X_05_02_04_03+ 1.000 X_05_02_04_05+ 1.000 X_05_02_05_04  - C_WCX_02 = 0 
C_WCX_03: 
1.000 X_03_01_01_02+ 1.000 X_03_01_01_03+ 1.000 X_03_01_02_01+ 1.000 X_03_01_02_03+ 1.000 X_03_01_03_01+ 1.000 X_03_01_03_02+ 1.000 X_03_01_03_04+ 
1.000 X_03_01_04_03+ 1.000 X_03_01_04_05+ 1.000 X_03_01_05_04+ 1.000 X_03_02_01_02+ 1.000 X_03_02_01_03+ 1.000 X_03_02_02_01+ 1.000 X_03_02_02_03+ 
1.000 X_03_02_03_01+ 1.000 X_03_02_03_02+ 1.000 X_03_02_03_04+ 1.000 X_03_02_04_03+ 1.000 X_03_02_04_05+ 1.000 X_03_02_05_04+ 1.000 X_03_04_01_02+ 
1.000 X_03_04_01_03+ 1.000 X_03_04_02_01+ 1.000 X_03_04_02_03+ 1.000 X_03_04_03_01+ 1.000 X_03_04_03_02+ 1.000 X_03_04_03_04+ 1.000 X_03_04_04_03+ 
1.000 X_03_04_04_05+ 1.000 X_03_04_05_04+ 1.000 X_03_05_01_02+ 1.000 X_03_05_01_03+ 1.000 X_03_05_02_01+ 1.000 X_03_05_02_03+ 1.000 X_03_05_03_01+ 
1.000 X_03_05_03_02+ 1.000 X_03_05_03_04+ 1.000 X_03_05_04_03+ 1.000 X_03_05_04_05+ 1.000 X_03_05_05_04+ 1.000 X_01_03_01_02+ 1.000 X_01_03_01_03+ 
1.000 X_01_03_02_01+ 1.000 X_01_03_02_03+ 1.000 X_01_03_03_01+ 1.000 X_01_03_03_02+ 1.000 X_01_03_03_04+ 1.000 X_01_03_04_03+ 1.000 X_01_03_04_05+ 
1.000 X_01_03_05_04+ 1.000 X_02_03_01_02+ 1.000 X_02_03_01_03+ 1.000 X_02_03_02_01+ 1.000 X_02_03_02_03+ 1.000 X_02_03_03_01+ 1.000 X_02_03_03_02+ 
1.000 X_02_03_03_04+ 1.000 X_02_03_04_03+ 1.000 X_02_03_04_05+ 1.000 X_02_03_05_04+ 1.000 X_04_03_01_02+ 1.000 X_04_03_01_03+ 1.000 X_04_03_02_01+ 
1.000 X_04_03_02_03+ 1.000 X_04_03_03_01+ 1.000 X_04_03_03_02+ 1.000 X_04_03_03_04+ 1.000 X_04_03_04_03+ 1.000 X_04_03_04_05+ 1.000 X_04_03_05_04+ 
1.000 X_05_03_01_02+ 1.000 X_05_03_01_03+ 1.000 X_05_03_02_01+ 1.000 X_05_03_02_03+ 1.000 X_05_03_03_01+ 1.000 X_05_03_03_02+ 1.000 X_05_03_03_04+ 
1.000 X_05_03_04_03+ 1.000 X_05_03_04_05+ 1.000 X_05_03_05_04  - C_WCX_03 = 0 
C_WCX_04: 
1.000 X_04_01_01_02+ 1.000 X_04_01_01_03+ 1.000 X_04_01_02_01+ 1.000 X_04_01_02_03+ 1.000 X_04_01_03_01+ 1.000 X_04_01_03_02+ 1.000 X_04_01_03_04+ 
1.000 X_04_01_04_03+ 1.000 X_04_01_04_05+ 1.000 X_04_01_05_04+ 1.000 X_04_02_01_02+ 1.000 X_04_02_01_03+ 1.000 X_04_02_02_01+ 1.000 X_04_02_02_03+ 
1.000 X_04_02_03_01+ 1.000 X_04_02_03_02+ 1.000 X_04_02_03_04+ 1.000 X_04_02_04_03+ 1.000 X_04_02_04_05+ 1.000 X_04_02_05_04+ 1.000 X_04_03_01_02+ 
1.000 X_04_03_01_03+ 1.000 X_04_03_02_01+ 1.000 X_04_03_02_03+ 1.000 X_04_03_03_01+ 1.000 X_04_03_03_02+ 1.000 X_04_03_03_04+ 1.000 X_04_03_04_03+ 
1.000 X_04_03_04_05+ 1.000 X_04_03_05_04+ 1.000 X_04_05_01_02+ 1.000 X_04_05_01_03+ 1.000 X_04_05_02_01+ 1.000 X_04_05_02_03+ 1.000 X_04_05_03_01+ 
1.000 X_04_05_03_02+ 1.000 X_04_05_03_04+ 1.000 X_04_05_04_03+ 1.000 X_04_05_04_05+ 1.000 X_04_05_05_04+ 1.000 X_01_04_01_02+ 1.000 X_01_04_01_03+ 
1.000 X_01_04_02_01+ 1.000 X_01_04_02_03+ 1.000 X_01_04_03_01+ 1.000 X_01_04_03_02+ 1.000 X_01_04_03_04+ 1.000 X_01_04_04_03+ 1.000 X_01_04_04_05+ 
1.000 X_01_04_05_04+ 1.000 X_02_04_01_02+ 1.000 X_02_04_01_03+ 1.000 X_02_04_02_01+ 1.000 X_02_04_02_03+ 1.000 X_02_04_03_01+ 1.000 X_02_04_03_02+ 
1.000 X_02_04_03_04+ 1.000 X_02_04_04_03+ 1.000 X_02_04_04_05+ 1.000 X_02_04_05_04+ 1.000 X_03_04_01_02+ 1.000 X_03_04_01_03+ 1.000 X_03_04_02_01+ 
1.000 X_03_04_02_03+ 1.000 X_03_04_03_01+ 1.000 X_03_04_03_02+ 1.000 X_03_04_03_04+ 1.000 X_03_04_04_03+ 1.000 X_03_04_04_05+ 1.000 X_03_04_05_04+ 
1.000 X_05_04_01_02+ 1.000 X_05_04_01_03+ 1.000 X_05_04_02_01+ 1.000 X_05_04_02_03+ 1.000 X_05_04_03_01+ 1.000 X_05_04_03_02+ 1.000 X_05_04_03_04+ 
1.000 X_05_04_04_03+ 1.000 X_05_04_04_05+ 1.000 X_05_04_05_04  - C_WCX_04 = 0 
C_WCX_05: 
1.000 X_05_01_01_02+ 1.000 X_05_01_01_03+ 1.000 X_05_01_02_01+ 1.000 X_05_01_02_03+ 1.000 X_05_01_03_01+ 1.000 X_05_01_03_02+ 1.000 X_05_01_03_04+ 
1.000 X_05_01_04_03+ 1.000 X_05_01_04_05+ 1.000 X_05_01_05_04+ 1.000 X_05_02_01_02+ 1.000 X_05_02_01_03+ 1.000 X_05_02_02_01+ 1.000 X_05_02_02_03+ 
1.000 X_05_02_03_01+ 1.000 X_05_02_03_02+ 1.000 X_05_02_03_04+ 1.000 X_05_02_04_03+ 1.000 X_05_02_04_05+ 1.000 X_05_02_05_04+ 1.000 X_05_03_01_02+ 
1.000 X_05_03_01_03+ 1.000 X_05_03_02_01+ 1.000 X_05_03_02_03+ 1.000 X_05_03_03_01+ 1.000 X_05_03_03_02+ 1.000 X_05_03_03_04+ 1.000 X_05_03_04_03+ 
1.000 X_05_03_04_05+ 1.000 X_05_03_05_04+ 1.000 X_05_04_01_02+ 1.000 X_05_04_01_03+ 1.000 X_05_04_02_01+ 1.000 X_05_04_02_03+ 1.000 X_05_04_03_01+ 
1.000 X_05_04_03_02+ 1.000 X_05_04_03_04+ 1.000 X_05_04_04_03+ 1.000 X_05_04_04_05+ 1.000 X_05_04_05_04+ 1.000 X_01_05_01_02+ 1.000 X_01_05_01_03+ 
1.000 X_01_05_02_01+ 1.000 X_01_05_02_03+ 1.000 X_01_05_03_01+ 1.000 X_01_05_03_02+ 1.000 X_01_05_03_04+ 1.000 X_01_05_04_03+ 1.000 X_01_05_04_05+ 
1.000 X_01_05_05_04+ 1.000 X_02_05_01_02+ 1.000 X_02_05_01_03+ 1.000 X_02_05_02_01+ 1.000 X_02_05_02_03+ 1.000 X_02_05_03_01+ 1.000 X_02_05_03_02+ 
1.000 X_02_05_03_04+ 1.000 X_02_05_04_03+ 1.000 X_02_05_04_05+ 1.000 X_02_05_05_04+ 1.000 X_03_05_01_02+ 1.000 X_03_05_01_03+ 1.000 X_03_05_02_01+ 
1.000 X_03_05_02_03+ 1.000 X_03_05_03_01+ 1.000 X_03_05_03_02+ 1.000 X_03_05_03_04+ 1.000 X_03_05_04_03+ 1.000 X_03_05_04_05+ 1.000 X_03_05_05_04+ 
1.000 X_04_05_01_02+ 1.000 X_04_05_01_03+ 1.000 X_04_05_02_01+ 1.000 X_04_05_02_03+ 1.000 X_04_05_03_01+ 1.000 X_04_05_03_02+ 1.000 X_04_05_03_04+ 
1.000 X_04_05_04_03+ 1.000 X_04_05_04_05+ 1.000 X_04_05_05_04  - C_WCX_05 = 0 

CARCFLOW_01_02: 
1.000 X_01_02_01_02+ 1.000 X_01_03_01_02+ 1.000 X_01_04_01_02+ 1.000 X_01_05_01_02+ 1.000 X_02_01_01_02+ 1.000 X_02_03_01_02+ 1.000 X_02_04_01_02+ 
1.000 X_02_05_01_02+ 1.000 X_03_01_01_02+ 1.000 X_03_02_01_02+ 1.000 X_03_04_01_02+ 1.000 X_03_05_01_02+ 1.000 X_04_01_01_02+ 1.000 X_04_02_01_02+ 
1.000 X_04_03_01_02+ 1.000 X_04_05_01_02+ 1.000 X_05_01_01_02+ 1.000 X_05_02_01_02+ 1.000 X_05_03_01_02+ 1.000 X_05_04_01_02  - ARCFLOW01_02 = 0 
CARCFLOW_01_03: 
1.000 X_01_02_01_03+ 1.000 X_01_03_01_03+ 1.000 X_01_04_01_03+ 1.000 X_01_05_01_03+ 1.000 X_02_01_01_03+ 1.000 X_02_03_01_03+ 1.000 X_02_04_01_03+ 
1.000 X_02_05_01_03+ 1.000 X_03_01_01_03+ 1.000 X_03_02_01_03+ 1.000 X_03_04_01_03+ 1.000 X_03_05_01_03+ 1.000 X_04_01_01_03+ 1.000 X_04_02_01_03+ 
1.000 X_04_03_01_03+ 1.000 X_04_05_01_03+ 1.000 X_05_01_01_03+ 1.000 X_05_02_01_03+ 1.000 X_05_03_01_03+ 1.000 X_05_04_01_03  - ARCFLOW01_03 = 0 
CARCFLOW_02_01: 
1.000 X_01_02_02_01+ 1.000 X_01_03_02_01+ 1.000 X_01_04_02_01+ 1.000 X_01_05_02_01+ 1.000 X_02_01_02_01+ 1.000 X_02_03_02_01+ 1.000 X_02_04_02_01+ 
1.000 X_02_05_02_01+ 1.000 X_03_01_02_01+ 1.000 X_03_02_02_01+ 1.000 X_03_04_02_01+ 1.000 X_03_05_02_01+ 1.000 X_04_01_02_01+ 1.000 X_04_02_02_01+ 
1.000 X_04_03_02_01+ 1.000 X_04_05_02_01+ 1.000 X_05_01_02_01+ 1.000 X_05_02_02_01+ 1.000 X_05_03_02_01+ 1.000 X_05_04_02_01  - ARCFLOW02_01 = 0 
CARCFLOW_02_03: 
1.000 X_01_02_02_03+ 1.000 X_01_03_02_03+ 1.000 X_01_04_02_03+ 1.000 X_01_05_02_03+ 1.000 X_02_01_02_03+ 1.000 X_02_03_02_03+ 1.000 X_02_04_02_03+ 
1.000 X_02_05_02_03+ 1.000 X_03_01_02_03+ 1.000 X_03_02_02_03+ 1.000 X_03_04_02_03+ 1.000 X_03_05_02_03+ 1.000 X_04_01_02_03+ 1.000 X_04_02_02_03+ 
1.000 X_04_03_02_03+ 1.000 X_04_05_02_03+ 1.000 X_05_01_02_03+ 1.000 X_05_02_02_03+ 1.000 X_05_03_02_03+ 1.000 X_05_04_02_03  - ARCFLOW02_03 = 0 
CARCFLOW_03_01: 
1.000 X_01_02_03_01+ 1.000 X_01_03_03_01+ 1.000 X_01_04_03_01+ 1.000 X_01_05_03_01+ 1.000 X_02_01_03_01+ 1.000 X_02_03_03_01+ 1.000 X_02_04_03_01+ 
1.000 X_02_05_03_01+ 1.000 X_03_01_03_01+ 1.000 X_03_02_03_01+ 1.000 X_03_04_03_01+ 1.000 X_03_05_03_01+ 1.000 X_04_01_03_01+ 1.000 X_04_02_03_01+ 
1.000 X_04_03_03_01+ 1.000 X_04_05_03_01+ 1.000 X_05_01_03_01+ 1.000 X_05_02_03_01+ 1.000 X_05_03_03_01+ 1.000 X_05_04_03_01  - ARCFLOW03_01 = 0 
CARCFLOW_03_02: 
1.000 X_01_02_03_02+ 1.000 X_01_03_03_02+ 1.000 X_01_04_03_02+ 1.000 X_01_05_03_02+ 1.000 X_02_01_03_02+ 1.000 X_02_03_03_02+ 1.000 X_02_04_03_02+ 
1.000 X_02_05_03_02+ 1.000 X_03_01_03_02+ 1.000 X_03_02_03_02+ 1.000 X_03_04_03_02+ 1.000 X_03_05_03_02+ 1.000 X_04_01_03_02+ 1.000 X_04_02_03_02+ 
1.000 X_04_03_03_02+ 1.000 X_04_05_03_02+ 1.000 X_05_01_03_02+ 1.000 X_05_02_03_02+ 1.000 X_05_03_03_02+ 1.000 X_05_04_03_02  - ARCFLOW03_02 = 0 
CARCFLOW_03_04: 
1.000 X_01_02_03_04+ 1.000 X_01_03_03_04+ 1.000 X_01_04_03_04+ 1.000 X_01_05_03_04+ 1.000 X_02_01_03_04+ 1.000 X_02_03_03_04+ 1.000 X_02_04_03_04+ 
1.000 X_02_05_03_04+ 1.000 X_03_01_03_04+ 1.000 X_03_02_03_04+ 1.000 X_03_04_03_04+ 1.000 X_03_05_03_04+ 1.000 X_04_01_03_04+ 1.000 X_04_02_03_04+ 
1.000 X_04_03_03_04+ 1.000 X_04_05_03_04+ 1.000 X_05_01_03_04+ 1.000 X_05_02_03_04+ 1.000 X_05_03_03_04+ 1.000 X_05_04_03_04  - ARCFLOW03_04 = 0 
CARCFLOW_04_03: 
1.000 X_01_02_04_03+ 1.000 X_01_03_04_03+ 1.000 X_01_04_04_03+ 1.000 X_01_05_04_03+ 1.000 X_02_01_04_03+ 1.000 X_02_03_04_03+ 1.000 X_02_04_04_03+ 
1.000 X_02_05_04_03+ 1.000 X_03_01_04_03+ 1.000 X_03_02_04_03+ 1.000 X_03_04_04_03+ 1.000 X_03_05_04_03+ 1.000 X_04_01_04_03+ 1.000 X_04_02_04_03+ 
1.000 X_04_03_04_03+ 1.000 X_04_05_04_03+ 1.000 X_05_01_04_03+ 1.000 X_05_02_04_03+ 1.000 X_05_03_04_03+ 1.000 X_05_04_04_03  - ARCFLOW04_03 = 0 
CARCFLOW_04_05: 
1.000 X_01_02_04_05+ 1.000 X_01_03_04_05+ 1.000 X_01_04_04_05+ 1.000 X_01_05_04_05+ 1.000 X_02_01_04_05+ 1.000 X_02_03_04_05+ 1.000 X_02_04_04_05+ 
1.000 X_02_05_04_05+ 1.000 X_03_01_04_05+ 1.000 X_03_02_04_05+ 1.000 X_03_04_04_05+ 1.000 X_03_05_04_05+ 1.000 X_04_01_04_05+ 1.000 X_04_02_04_05+ 
1.000 X_04_03_04_05+ 1.000 X_04_05_04_05+ 1.000 X_05_01_04_05+ 1.000 X_05_02_04_05+ 1.000 X_05_03_04_05+ 1.000 X_05_04_04_05  - ARCFLOW04_05 = 0 
CARCFLOW_05_04: 
1.000 X_01_02_05_04+ 1.000 X_01_03_05_04+ 1.000 X_01_04_05_04+ 1.000 X_01_05_05_04+ 1.000 X_02_01_05_04+ 1.000 X_02_03_05_04+ 1.000 X_02_04_05_04+ 
1.000 X_02_05_05_04+ 1.000 X_03_01_05_04+ 1.000 X_03_02_05_04+ 1.000 X_03_04_05_04+ 1.000 X_03_05_05_04+ 1.000 X_04_01_05_04+ 1.000 X_04_02_05_04+ 
1.000 X_04_03_05_04+ 1.000 X_04_05_05_04+ 1.000 X_05_01_05_04+ 1.000 X_05_02_05_04+ 1.000 X_05_03_05_04+ 1.000 X_05_04_05_04  - ARCFLOW05_04 = 0 

C_NODEFLOW_01: 
1.000 X_01_02_01_02+ 1.000 X_01_03_01_02+ 1.000 X_01_04_01_02+ 1.000 X_01_05_01_02+ 1.000 X_02_01_01_02+ 1.000 X_02_03_01_02+ 1.000 X_02_04_01_02+ 
1.000 X_02_05_01_02+ 1.000 X_03_01_01_02+ 1.000 X_03_02_01_02+ 1.000 X_03_04_01_02+ 1.000 X_03_05_01_02+ 1.000 X_04_01_01_02+ 1.000 X_04_02_01_02+ 
1.000 X_04_03_01_02+ 1.000 X_04_05_01_02+ 1.000 X_05_01_01_02+ 1.000 X_05_02_01_02+ 1.000 X_05_03_01_02+ 1.000 X_05_04_01_02+ 1.000 X_01_02_01_03+ 
1.000 X_01_03_01_03+ 1.000 X_01_04_01_03+ 1.000 X_01_05_01_03+ 1.000 X_02_01_01_03+ 1.000 X_02_03_01_03+ 1.000 X_02_04_01_03+ 1.000 X_02_05_01_03+ 
1.000 X_03_01_01_03+ 1.000 X_03_02_01_03+ 1.000 X_03_04_01_03+ 1.000 X_03_05_01_03+ 1.000 X_04_01_01_03+ 1.000 X_04_02_01_03+ 1.000 X_04_03_01_03+ 
1.000 X_04_05_01_03+ 1.000 X_05_01_01_03+ 1.000 X_05_02_01_03+ 1.000 X_05_03_01_03+ 1.000 X_05_04_01_03+ 1.000 X_01_02_02_01+ 1.000 X_01_03_02_01+ 
1.000 X_01_04_02_01+ 1.000 X_01_05_02_01+ 1.000 X_02_01_02_01+ 1.000 X_02_03_02_01+ 1.000 X_02_04_02_01+ 1.000 X_02_05_02_01+ 1.000 X_03_01_02_01+ 
1.000 X_03_02_02_01+ 1.000 X_03_04_02_01+ 1.000 X_03_05_02_01+ 1.000 X_04_01_02_01+ 1.000 X_04_02_02_01+ 1.000 X_04_03_02_01+ 1.000 X_04_05_02_01+ 
1.000 X_05_01_02_01+ 1.000 X_05_02_02_01+ 1.000 X_05_03_02_01+ 1.000 X_05_04_02_01+ 1.000 X_01_02_03_01+ 1.000 X_01_03_03_01+ 1.000 X_01_04_03_01+ 
1.000 X_01_05_03_01+ 1.000 X_02_01_03_01+ 1.000 X_02_03_03_01+ 1.000 X_02_04_03_01+ 1.000 X_02_05_03_01+ 1.000 X_03_01_03_01+ 1.000 X_03_02_03_01+ 
1.000 X_03_04_03_01+ 1.000 X_03_05_03_01+ 1.000 X_04_01_03_01+ 1.000 X_04_02_03_01+ 1.000 X_04_03_03_01+ 1.000 X_04_05_03_01+ 1.000 X_05_01_03_01+ 
1.000 X_05_02_03_01+ 1.000 X_05_03_03_01+ 1.000 X_05_04_03_01  - C_NODEFLOW_01 = 0 
C_NODEFLOW_02: 
1.000 X_01_02_02_01+ 1.000 X_01_03_02_01+ 1.000 X_01_04_02_01+ 1.000 X_01_05_02_01+ 1.000 X_02_01_02_01+ 1.000 X_02_03_02_01+ 1.000 X_02_04_02_01+ 
1.000 X_02_05_02_01+ 1.000 X_03_01_02_01+ 1.000 X_03_02_02_01+ 1.000 X_03_04_02_01+ 1.000 X_03_05_02_01+ 1.000 X_04_01_02_01+ 1.000 X_04_02_02_01+ 
1.000 X_04_03_02_01+ 1.000 X_04_05_02_01+ 1.000 X_05_01_02_01+ 1.000 X_05_02_02_01+ 1.000 X_05_03_02_01+ 1.000 X_05_04_02_01+ 1.000 X_01_02_02_03+ 
1.000 X_01_03_02_03+ 1.000 X_01_04_02_03+ 1.000 X_01_05_02_03+ 1.000 X_02_01_02_03+ 1.000 X_02_03_02_03+ 1.000 X_02_04_02_03+ 1.000 X_02_05_02_03+ 
1.000 X_03_01_02_03+ 1.000 X_03_02_02_03+ 1.000 X_03_04_02_03+ 1.000 X_03_05_02_03+ 1.000 X_04_01_02_03+ 1.000 X_04_02_02_03+ 1.000 X_04_03_02_03+ 
1.000 X_04_05_02_03+ 1.000 X_05_01_02_03+ 1.000 X_05_02_02_03+ 1.000 X_05_03_02_03+ 1.000 X_05_04_02_03+ 1.000 X_01_02_01_02+ 1.000 X_01_03_01_02+ 
1.000 X_01_04_01_02+ 1.000 X_01_05_01_02+ 1.000 X_02_01_01_02+ 1.000 X_02_03_01_02+ 1.000 X_02_04_01_02+ 1.000 X_02_05_01_02+ 1.000 X_03_01_01_02+ 
1.000 X_03_02_01_02+ 1.000 X_03_04_01_02+ 1.000 X_03_05_01_02+ 1.000 X_04_01_01_02+ 1.000 X_04_02_01_02+ 1.000 X_04_03_01_02+ 1.000 X_04_05_01_02+ 
1.000 X_05_01_01_02+ 1.000 X_05_02_01_02+ 1.000 X_05_03_01_02+ 1.000 X_05_04_01_02+ 1.000 X_01_02_03_02+ 1.000 X_01_03_03_02+ 1.000 X_01_04_03_02+ 
1.000 X_01_05_03_02+ 1.000 X_02_01_03_02+ 1.000 X_02_03_03_02+ 1.000 X_02_04_03_02+ 1.000 X_02_05_03_02+ 1.000 X_03_01_03_02+ 1.000 X_03_02_03_02+ 
1.000 X_03_04_03_02+ 1.000 X_03_05_03_02+ 1.000 X_04_01_03_02+ 1.000 X_04_02_03_02+ 1.000 X_04_03_03_02+ 1.000 X_04_05_03_02+ 1.000 X_05_01_03_02+ 
1.000 X_05_02_03_02+ 1.000 X_05_03_03_02+ 1.000 X_05_04_03_02  - C_NODEFLOW_02 = 0 
C_NODEFLOW_03: 
1.000 X_01_02_03_01+ 1.000 X_01_03_03_01+ 1.000 X_01_04_03_01+ 1.000 X_01_05_03_01+ 1.000 X_02_01_03_01+ 1.000 X_02_03_03_01+ 1.000 X_02_04_03_01+ 
1.000 X_02_05_03_01+ 1.000 X_03_01_03_01+ 1.000 X_03_02_03_01+ 1.000 X_03_04_03_01+ 1.000 X_03_05_03_01+ 1.000 X_04_01_03_01+ 1.000 X_04_02_03_01+ 
1.000 X_04_03_03_01+ 1.000 X_04_05_03_01+ 1.000 X_05_01_03_01+ 1.000 X_05_02_03_01+ 1.000 X_05_03_03_01+ 1.000 X_05_04_03_01+ 1.000 X_01_02_03_02+ 
1.000 X_01_03_03_02+ 1.000 X_01_04_03_02+ 1.000 X_01_05_03_02+ 1.000 X_02_01_03_02+ 1.000 X_02_03_03_02+ 1.000 X_02_04_03_02+ 1.000 X_02_05_03_02+ 
1.000 X_03_01_03_02+ 1.000 X_03_02_03_02+ 1.000 X_03_04_03_02+ 1.000 X_03_05_03_02+ 1.000 X_04_01_03_02+ 1.000 X_04_02_03_02+ 1.000 X_04_03_03_02+ 
1.000 X_04_05_03_02+ 1.000 X_05_01_03_02+ 1.000 X_05_02_03_02+ 1.000 X_05_03_03_02+ 1.000 X_05_04_03_02+ 1.000 X_01_02_03_04+ 1.000 X_01_03_03_04+ 
1.000 X_01_04_03_04+ 1.000 X_01_05_03_04+ 1.000 X_02_01_03_04+ 1.000 X_02_03_03_04+ 1.000 X_02_04_03_04+ 1.000 X_02_05_03_04+ 1.000 X_03_01_03_04+ 
1.000 X_03_02_03_04+ 1.000 X_03_04_03_04+ 1.000 X_03_05_03_04+ 1.000 X_04_01_03_04+ 1.000 X_04_02_03_04+ 1.000 X_04_03_03_04+ 1.000 X_04_05_03_04+ 
1.000 X_05_01_03_04+ 1.000 X_05_02_03_04+ 1.000 X_05_03_03_04+ 1.000 X_05_04_03_04+ 1.000 X_01_02_01_03+ 1.000 X_01_03_01_03+ 1.000 X_01_04_01_03+ 
1.000 X_01_05_01_03+ 1.000 X_02_01_01_03+ 1.000 X_02_03_01_03+ 1.000 X_02_04_01_03+ 1.000 X_02_05_01_03+ 1.000 X_03_01_01_03+ 1.000 X_03_02_01_03+ 
1.000 X_03_04_01_03+ 1.000 X_03_05_01_03+ 1.000 X_04_01_01_03+ 1.000 X_04_02_01_03+ 1.000 X_04_03_01_03+ 1.000 X_04_05_01_03+ 1.000 X_05_01_01_03+ 
1.000 X_05_02_01_03+ 1.000 X_05_03_01_03+ 1.000 X_05_04_01_03+ 1.000 X_01_02_02_03+ 1.000 X_01_03_02_03+ 1.000 X_01_04_02_03+ 1.000 X_01_05_02_03+ 
1.000 X_02_01_02_03+ 1.000 X_02_03_02_03+ 1.000 X_02_04_02_03+ 1.000 X_02_05_02_03+ 1.000 X_03_01_02_03+ 1.000 X_03_02_02_03+ 1.000 X_03_04_02_03+ 
1.000 X_03_05_02_03+ 1.000 X_04_01_02_03+ 1.000 X_04_02_02_03+ 1.000 X_04_03_02_03+ 1.000 X_04_05_02_03+ 1.000 X_05_01_02_03+ 1.000 X_05_02_02_03+ 
1.000 X_05_03_02_03+ 1.000 X_05_04_02_03+ 1.000 X_01_02_04_03+ 1.000 X_01_03_04_03+ 1.000 X_01_04_04_03+ 1.000 X_01_05_04_03+ 1.000 X_02_01_04_03+ 
1.000 X_02_03_04_03+ 1.000 X_02_04_04_03+ 1.000 X_02_05_04_03+ 1.000 X_03_01_04_03+ 1.000 X_03_02_04_03+ 1.000 X_03_04_04_03+ 1.000 X_03_05_04_03+ 
1.000 X_04_01_04_03+ 1.000 X_04_02_04_03+ 1.000 X_04_03_04_03+ 1.000 X_04_05_04_03+ 1.000 X_05_01_04_03+ 1.000 X_05_02_04_03+ 1.000 X_05_03_04_03+ 
1.000 X_05_04_04_03  - C_NODEFLOW_03 = 0 
C_NODEFLOW_04: 
1.000 X_01_02_04_03+ 1.000 X_01_03_04_03+ 1.000 X_01_04_04_03+ 1.000 X_01_05_04_03+ 1.000 X_02_01_04_03+ 1.000 X_02_03_04_03+ 1.000 X_02_04_04_03+ 
1.000 X_02_05_04_03+ 1.000 X_03_01_04_03+ 1.000 X_03_02_04_03+ 1.000 X_03_04_04_03+ 1.000 X_03_05_04_03+ 1.000 X_04_01_04_03+ 1.000 X_04_02_04_03+ 
1.000 X_04_03_04_03+ 1.000 X_04_05_04_03+ 1.000 X_05_01_04_03+ 1.000 X_05_02_04_03+ 1.000 X_05_03_04_03+ 1.000 X_05_04_04_03+ 1.000 X_01_02_04_05+ 
1.000 X_01_03_04_05+ 1.000 X_01_04_04_05+ 1.000 X_01_05_04_05+ 1.000 X_02_01_04_05+ 1.000 X_02_03_04_05+ 1.000 X_02_04_04_05+ 1.000 X_02_05_04_05+ 
1.000 X_03_01_04_05+ 1.000 X_03_02_04_05+ 1.000 X_03_04_04_05+ 1.000 X_03_05_04_05+ 1.000 X_04_01_04_05+ 1.000 X_04_02_04_05+ 1.000 X_04_03_04_05+ 
1.000 X_04_05_04_05+ 1.000 X_05_01_04_05+ 1.000 X_05_02_04_05+ 1.000 X_05_03_04_05+ 1.000 X_05_04_04_05+ 1.000 X_01_02_03_04+ 1.000 X_01_03_03_04+ 
1.000 X_01_04_03_04+ 1.000 X_01_05_03_04+ 1.000 X_02_01_03_04+ 1.000 X_02_03_03_04+ 1.000 X_02_04_03_04+ 1.000 X_02_05_03_04+ 1.000 X_03_01_03_04+ 
1.000 X_03_02_03_04+ 1.000 X_03_04_03_04+ 1.000 X_03_05_03_04+ 1.000 X_04_01_03_04+ 1.000 X_04_02_03_04+ 1.000 X_04_03_03_04+ 1.000 X_04_05_03_04+ 
1.000 X_05_01_03_04+ 1.000 X_05_02_03_04+ 1.000 X_05_03_03_04+ 1.000 X_05_04_03_04+ 1.000 X_01_02_05_04+ 1.000 X_01_03_05_04+ 1.000 X_01_04_05_04+ 
1.000 X_01_05_05_04+ 1.000 X_02_01_05_04+ 1.000 X_02_03_05_04+ 1.000 X_02_04_05_04+ 1.000 X_02_05_05_04+ 1.000 X_03_01_05_04+ 1.000 X_03_02_05_04+ 
1.000 X_03_04_05_04+ 1.000 X_03_05_05_04+ 1.000 X_04_01_05_04+ 1.000 X_04_02_05_04+ 1.000 X_04_03_05_04+ 1.000 X_04_05_05_04+ 1.000 X_05_01_05_04+ 
1.000 X_05_02_05_04+ 1.000 X_05_03_05_04+ 1.000 X_05_04_05_04  - C_NODEFLOW_04 = 0 
C_NODEFLOW_05: 
1.000 X_01_02_05_04+ 1.000 X_01_03_05_04+ 1.000 X_01_04_05_04+ 1.000 X_01_05_05_04+ 1.000 X_02_01_05_04+ 1.000 X_02_03_05_04+ 1.000 X_02_04_05_04+ 
1.000 X_02_05_05_04+ 1.000 X_03_01_05_04+ 1.000 X_03_02_05_04+ 1.000 X_03_04_05_04+ 1.000 X_03_05_05_04+ 1.000 X_04_01_05_04+ 1.000 X_04_02_05_04+ 
1.000 X_04_03_05_04+ 1.000 X_04_05_05_04+ 1.000 X_05_01_05_04+ 1.000 X_05_02_05_04+ 1.000 X_05_03_05_04+ 1.000 X_05_04_05_04+ 1.000 X_01_02_04_05+ 
1.000 X_01_03_04_05+ 1.000 X_01_04_04_05+ 1.000 X_01_05_04_05+ 1.000 X_02_01_04_05+ 1.000 X_02_03_04_05+ 1.000 X_02_04_04_05+ 1.000 X_02_05_04_05+ 
1.000 X_03_01_04_05+ 1.000 X_03_02_04_05+ 1.000 X_03_04_04_05+ 1.000 X_03_05_04_05+ 1.000 X_04_01_04_05+ 1.000 X_04_02_04_05+ 1.000 X_04_03_04_05+ 
1.000 X_04_05_04_05+ 1.000 X_05_01_04_05+ 1.000 X_05_02_04_05+ 1.000 X_05_03_04_05+ 1.000 X_05_04_04_05  - C_NODEFLOW_05 = 0 

BINARIES 
 X_01_02_01_02  X_01_02_01_03  X_01_02_02_01  X_01_02_02_03  X_01_02_03_01  X_01_02_03_02  X_01_02_03_04  X_01_02_04_03  X_01_02_04_05  X_01_02_05_04 
 X_01_03_01_02  X_01_03_01_03  X_01_03_02_01  X_01_03_02_03  X_01_03_03_01  X_01_03_03_02  X_01_03_03_04  X_01_03_04_03  X_01_03_04_05  X_01_03_05_04 
 X_01_04_01_02  X_01_04_01_03  X_01_04_02_01  X_01_04_02_03  X_01_04_03_01  X_01_04_03_02  X_01_04_03_04  X_01_04_04_03  X_01_04_04_05  X_01_04_05_04 
 X_01_05_01_02  X_01_05_01_03  X_01_05_02_01  X_01_05_02_03  X_01_05_03_01  X_01_05_03_02  X_01_05_03_04  X_01_05_04_03  X_01_05_04_05  X_01_05_05_04 
 X_02_01_01_02  X_02_01_01_03  X_02_01_02_01  X_02_01_02_03  X_02_01_03_01  X_02_01_03_02  X_02_01_03_04  X_02_01_04_03  X_02_01_04_05  X_02_01_05_04 
 X_02_03_01_02  X_02_03_01_03  X_02_03_02_01  X_02_03_02_03  X_02_03_03_01  X_02_03_03_02  X_02_03_03_04  X_02_03_04_03  X_02_03_04_05  X_02_03_05_04 
 X_02_04_01_02  X_02_04_01_03  X_02_04_02_01  X_02_04_02_03  X_02_04_03_01  X_02_04_03_02  X_02_04_03_04  X_02_04_04_03  X_02_04_04_05  X_02_04_05_04 
 X_02_05_01_02  X_02_05_01_03  X_02_05_02_01  X_02_05_02_03  X_02_05_03_01  X_02_05_03_02  X_02_05_03_04  X_02_05_04_03  X_02_05_04_05  X_02_05_05_04 
 X_03_01_01_02  X_03_01_01_03  X_03_01_02_01  X_03_01_02_03  X_03_01_03_01  X_03_01_03_02  X_03_01_03_04  X_03_01_04_03  X_03_01_04_05  X_03_01_05_04 
 X_03_02_01_02  X_03_02_01_03  X_03_02_02_01  X_03_02_02_03  X_03_02_03_01  X_03_02_03_02  X_03_02_03_04  X_03_02_04_03  X_03_02_04_05  X_03_02_05_04 
 X_03_04_01_02  X_03_04_01_03  X_03_04_02_01  X_03_04_02_03  X_03_04_03_01  X_03_04_03_02  X_03_04_03_04  X_03_04_04_03  X_03_04_04_05  X_03_04_05_04 
 X_03_05_01_02  X_03_05_01_03  X_03_05_02_01  X_03_05_02_03  X_03_05_03_01  X_03_05_03_02  X_03_05_03_04  X_03_05_04_03  X_03_05_04_05  X_03_05_05_04 
 X_04_01_01_02  X_04_01_01_03  X_04_01_02_01  X_04_01_02_03  X_04_01_03_01  X_04_01_03_02  X_04_01_03_04  X_04_01_04_03  X_04_01_04_05  X_04_01_05_04 
 X_04_02_01_02  X_04_02_01_03  X_04_02_02_01  X_04_02_02_03  X_04_02_03_01  X_04_02_03_02  X_04_02_03_04  X_04_02_04_03  X_04_02_04_05  X_04_02_05_04 
 X_04_03_01_02  X_04_03_01_03  X_04_03_02_01  X_04_03_02_03  X_04_03_03_01  X_04_03_03_02  X_04_03_03_04  X_04_03_04_03  X_04_03_04_05  X_04_03_05_04 
 X_04_05_01_02  X_04_05_01_03  X_04_05_02_01  X_04_05_02_03  X_04_05_03_01  X_04_05_03_02  X_04_05_03_04  X_04_05_04_03  X_04_05_04_05  X_04_05_05_04 
 X_05_01_01_02  X_05_01_01_03  X_05_01_02_01  X_05_01_02_03  X_05_01_03_01  X_05_01_03_02  X_05_01_03_04  X_05_01_04_03  X_05_01_04_05  X_05_01_05_04 
 X_05_02_01_02  X_05_02_01_03  X_05_02_02_01  X_05_02_02_03  X_05_02_03_01  X_05_02_03_02  X_05_02_03_04  X_05_02_04_03  X_05_02_04_05  X_05_02_05_04 
 X_05_03_01_02  X_05_03_01_03  X_05_03_02_01  X_05_03_02_03  X_05_03_03_01  X_05_03_03_02  X_05_03_03_04  X_05_03_04_03  X_05_03_04_05  X_05_03_05_04 
 X_05_04_01_02  X_05_04_01_03  X_05_04_02_01  X_05_04_02_03  X_05_04_03_01  X_05_04_03_02  X_05_04_03_04  X_05_04_04_03  X_05_04_04_05  X_05_04_05_04 

END 

